nNurses = 112;
hours = 42;
demand = [17 21 7 5 14 8 0 2 11 9 9 2 25 22 7 4 27 25 19 10 16 3 25 27 24 11 11 16 13 24 21 25 19 4 16 1 20 4 24 20 21 18];
minHours = 8;
maxHours = 12;
maxConsec = 6;
maxPresence = 18;